NAME : portcgen-20-20
COMMENT : portcgen N=20, seed=20
TYPE : TSP
DIMENSION : 20
EDGE_WEIGHT_TYPE : EUC_2D
NODE_COORD_SECTION
1 324814 -92314
2 -128098 -24474
3 -614408 252500
4 185429 40999
5 112570 440612
6 -104009 -270327
7 4497 10555
8 -63773 -861774
9 112154 229000
10 140787 -126583
11 -141519 30156
12 91827 -160806
13 -236238 -132847
14 -163731 91420
15 462754 -429803
16 127399 -187273
17 196611 186493
18 77500 158648
19 -103761 -244986
20 142525 -208658
